c A SAT instance generated from a 3-CNF formula that had 44 clauses and 11 variables
p cnf 11 44
-3 -1 -6 0
-4 -8 9 0
7 10 -8 0
-3 4 -1 0
3 -2 -9 0
-1 6 -7 0
4 7 -6 0
-8 -3 -2 0
3 -11 9 0
7 -4 11 0
6 9 1 0
4 -9 11 0
-5 -11 10 0
-8 7 -9 0
2 -9 5 0
-5 -1 -9 0
6 -2 -11 0
-5 -9 -3 0
9 -2 5 0
3 -8 -5 0
3 7 -10 0
5 2 -8 0
9 6 2 0
11 -6 7 0
6 -3 11 0
-5 11 -8 0
-10 1 -5 0
2 -1 4 0
3 -7 6 0
6 -9 2 0
5 -10 -6 0
-10 8 11 0
2 -7 -9 0
-3 9 6 0
8 3 2 0
-8 1 5 0
8 -11 -10 0
7 -9 4 0
-3 6 -8 0
7 -3 11 0
3 -7 5 0
8 11 6 0
6 2 -5 0
2 -7 10 0
